p cnf 639 1708
cr 286 290 296 302 308 314 320 326 332 338 344 350 356 362 368 374 380 386 392 398 404 410 416 422 428 434 440 446 452 458 464 470
c ind 286 290 296 302 308 314 320 326 332 338 0
c ind 344 350 356 362 368 374 380 386 392 398 0
c ind 404 410 416 422 428 434 440 446 452 458 0
c ind 464 470 0
c expected model count 2^32
-1 -33 -65 0
1 33 -65 0
-1 33 65 0
1 -33 65 0
1 -66 0
33 -66 0
-1 -33 66 0
-66 67 0
66 -67 0
-2 -34 -68 0
2 34 -68 0
-2 34 68 0
2 -34 68 0
-67 -68 -69 0
67 68 -69 0
67 -68 69 0
-67 68 69 0
2 -70 0
34 -70 0
-2 -34 70 0
2 -71 0
67 -71 0
-2 -67 71 0
34 -72 0
67 -72 0
-34 -67 72 0
-70 73 0
-71 73 0
-72 73 0
70 71 72 -73 0
-3 -35 -74 0
3 35 -74 0
-3 35 74 0
3 -35 74 0
-73 -74 -75 0
73 74 -75 0
73 -74 75 0
-73 74 75 0
3 -76 0
35 -76 0
-3 -35 76 0
3 -77 0
73 -77 0
-3 -73 77 0
35 -78 0
73 -78 0
-35 -73 78 0
-76 79 0
-77 79 0
-78 79 0
76 77 78 -79 0
-4 -36 -80 0
4 36 -80 0
-4 36 80 0
4 -36 80 0
-79 -80 -81 0
79 80 -81 0
79 -80 81 0
-79 80 81 0
4 -82 0
36 -82 0
-4 -36 82 0
4 -83 0
79 -83 0
-4 -79 83 0
36 -84 0
79 -84 0
-36 -79 84 0
-82 85 0
-83 85 0
-84 85 0
82 83 84 -85 0
-5 -37 -86 0
5 37 -86 0
-5 37 86 0
5 -37 86 0
-85 -86 -87 0
85 86 -87 0
85 -86 87 0
-85 86 87 0
5 -88 0
37 -88 0
-5 -37 88 0
5 -89 0
85 -89 0
-5 -85 89 0
37 -90 0
85 -90 0
-37 -85 90 0
-88 91 0
-89 91 0
-90 91 0
88 89 90 -91 0
-6 -38 -92 0
6 38 -92 0
-6 38 92 0
6 -38 92 0
-91 -92 -93 0
91 92 -93 0
91 -92 93 0
-91 92 93 0
6 -94 0
38 -94 0
-6 -38 94 0
6 -95 0
91 -95 0
-6 -91 95 0
38 -96 0
91 -96 0
-38 -91 96 0
-94 97 0
-95 97 0
-96 97 0
94 95 96 -97 0
-7 -39 -98 0
7 39 -98 0
-7 39 98 0
7 -39 98 0
-97 -98 -99 0
97 98 -99 0
97 -98 99 0
-97 98 99 0
7 -100 0
39 -100 0
-7 -39 100 0
7 -101 0
97 -101 0
-7 -97 101 0
39 -102 0
97 -102 0
-39 -97 102 0
-100 103 0
-101 103 0
-102 103 0
100 101 102 -103 0
-8 -40 -104 0
8 40 -104 0
-8 40 104 0
8 -40 104 0
-103 -104 -105 0
103 104 -105 0
103 -104 105 0
-103 104 105 0
8 -106 0
40 -106 0
-8 -40 106 0
8 -107 0
103 -107 0
-8 -103 107 0
40 -108 0
103 -108 0
-40 -103 108 0
-106 109 0
-107 109 0
-108 109 0
106 107 108 -109 0
-9 -41 -110 0
9 41 -110 0
-9 41 110 0
9 -41 110 0
-109 -110 -111 0
109 110 -111 0
109 -110 111 0
-109 110 111 0
9 -112 0
41 -112 0
-9 -41 112 0
9 -113 0
109 -113 0
-9 -109 113 0
41 -114 0
109 -114 0
-41 -109 114 0
-112 115 0
-113 115 0
-114 115 0
112 113 114 -115 0
-10 -42 -116 0
10 42 -116 0
-10 42 116 0
10 -42 116 0
-115 -116 -117 0
115 116 -117 0
115 -116 117 0
-115 116 117 0
10 -118 0
42 -118 0
-10 -42 118 0
10 -119 0
115 -119 0
-10 -115 119 0
42 -120 0
115 -120 0
-42 -115 120 0
-118 121 0
-119 121 0
-120 121 0
118 119 120 -121 0
-11 -43 -122 0
11 43 -122 0
-11 43 122 0
11 -43 122 0
-121 -122 -123 0
121 122 -123 0
121 -122 123 0
-121 122 123 0
11 -124 0
43 -124 0
-11 -43 124 0
11 -125 0
121 -125 0
-11 -121 125 0
43 -126 0
121 -126 0
-43 -121 126 0
-124 127 0
-125 127 0
-126 127 0
124 125 126 -127 0
-12 -44 -128 0
12 44 -128 0
-12 44 128 0
12 -44 128 0
-127 -128 -129 0
127 128 -129 0
127 -128 129 0
-127 128 129 0
12 -130 0
44 -130 0
-12 -44 130 0
12 -131 0
127 -131 0
-12 -127 131 0
44 -132 0
127 -132 0
-44 -127 132 0
-130 133 0
-131 133 0
-132 133 0
130 131 132 -133 0
-13 -45 -134 0
13 45 -134 0
-13 45 134 0
13 -45 134 0
-133 -134 -135 0
133 134 -135 0
133 -134 135 0
-133 134 135 0
13 -136 0
45 -136 0
-13 -45 136 0
13 -137 0
133 -137 0
-13 -133 137 0
45 -138 0
133 -138 0
-45 -133 138 0
-136 139 0
-137 139 0
-138 139 0
136 137 138 -139 0
-14 -46 -140 0
14 46 -140 0
-14 46 140 0
14 -46 140 0
-139 -140 -141 0
139 140 -141 0
139 -140 141 0
-139 140 141 0
14 -142 0
46 -142 0
-14 -46 142 0
14 -143 0
139 -143 0
-14 -139 143 0
46 -144 0
139 -144 0
-46 -139 144 0
-142 145 0
-143 145 0
-144 145 0
142 143 144 -145 0
-15 -47 -146 0
15 47 -146 0
-15 47 146 0
15 -47 146 0
-145 -146 -147 0
145 146 -147 0
145 -146 147 0
-145 146 147 0
15 -148 0
47 -148 0
-15 -47 148 0
15 -149 0
145 -149 0
-15 -145 149 0
47 -150 0
145 -150 0
-47 -145 150 0
-148 151 0
-149 151 0
-150 151 0
148 149 150 -151 0
-16 -48 -152 0
16 48 -152 0
-16 48 152 0
16 -48 152 0
-151 -152 -153 0
151 152 -153 0
151 -152 153 0
-151 152 153 0
16 -154 0
48 -154 0
-16 -48 154 0
16 -155 0
151 -155 0
-16 -151 155 0
48 -156 0
151 -156 0
-48 -151 156 0
-154 157 0
-155 157 0
-156 157 0
154 155 156 -157 0
-17 -49 -158 0
17 49 -158 0
-17 49 158 0
17 -49 158 0
-157 -158 -159 0
157 158 -159 0
157 -158 159 0
-157 158 159 0
17 -160 0
49 -160 0
-17 -49 160 0
17 -161 0
157 -161 0
-17 -157 161 0
49 -162 0
157 -162 0
-49 -157 162 0
-160 163 0
-161 163 0
-162 163 0
160 161 162 -163 0
-18 -50 -164 0
18 50 -164 0
-18 50 164 0
18 -50 164 0
-163 -164 -165 0
163 164 -165 0
163 -164 165 0
-163 164 165 0
18 -166 0
50 -166 0
-18 -50 166 0
18 -167 0
163 -167 0
-18 -163 167 0
50 -168 0
163 -168 0
-50 -163 168 0
-166 169 0
-167 169 0
-168 169 0
166 167 168 -169 0
-19 -51 -170 0
19 51 -170 0
-19 51 170 0
19 -51 170 0
-169 -170 -171 0
169 170 -171 0
169 -170 171 0
-169 170 171 0
19 -172 0
51 -172 0
-19 -51 172 0
19 -173 0
169 -173 0
-19 -169 173 0
51 -174 0
169 -174 0
-51 -169 174 0
-172 175 0
-173 175 0
-174 175 0
172 173 174 -175 0
-20 -52 -176 0
20 52 -176 0
-20 52 176 0
20 -52 176 0
-175 -176 -177 0
175 176 -177 0
175 -176 177 0
-175 176 177 0
20 -178 0
52 -178 0
-20 -52 178 0
20 -179 0
175 -179 0
-20 -175 179 0
52 -180 0
175 -180 0
-52 -175 180 0
-178 181 0
-179 181 0
-180 181 0
178 179 180 -181 0
-21 -53 -182 0
21 53 -182 0
-21 53 182 0
21 -53 182 0
-181 -182 -183 0
181 182 -183 0
181 -182 183 0
-181 182 183 0
21 -184 0
53 -184 0
-21 -53 184 0
21 -185 0
181 -185 0
-21 -181 185 0
53 -186 0
181 -186 0
-53 -181 186 0
-184 187 0
-185 187 0
-186 187 0
184 185 186 -187 0
-22 -54 -188 0
22 54 -188 0
-22 54 188 0
22 -54 188 0
-187 -188 -189 0
187 188 -189 0
187 -188 189 0
-187 188 189 0
22 -190 0
54 -190 0
-22 -54 190 0
22 -191 0
187 -191 0
-22 -187 191 0
54 -192 0
187 -192 0
-54 -187 192 0
-190 193 0
-191 193 0
-192 193 0
190 191 192 -193 0
-23 -55 -194 0
23 55 -194 0
-23 55 194 0
23 -55 194 0
-193 -194 -195 0
193 194 -195 0
193 -194 195 0
-193 194 195 0
23 -196 0
55 -196 0
-23 -55 196 0
23 -197 0
193 -197 0
-23 -193 197 0
55 -198 0
193 -198 0
-55 -193 198 0
-196 199 0
-197 199 0
-198 199 0
196 197 198 -199 0
-24 -56 -200 0
24 56 -200 0
-24 56 200 0
24 -56 200 0
-199 -200 -201 0
199 200 -201 0
199 -200 201 0
-199 200 201 0
24 -202 0
56 -202 0
-24 -56 202 0
24 -203 0
199 -203 0
-24 -199 203 0
56 -204 0
199 -204 0
-56 -199 204 0
-202 205 0
-203 205 0
-204 205 0
202 203 204 -205 0
-25 -57 -206 0
25 57 -206 0
-25 57 206 0
25 -57 206 0
-205 -206 -207 0
205 206 -207 0
205 -206 207 0
-205 206 207 0
25 -208 0
57 -208 0
-25 -57 208 0
25 -209 0
205 -209 0
-25 -205 209 0
57 -210 0
205 -210 0
-57 -205 210 0
-208 211 0
-209 211 0
-210 211 0
208 209 210 -211 0
-26 -58 -212 0
26 58 -212 0
-26 58 212 0
26 -58 212 0
-211 -212 -213 0
211 212 -213 0
211 -212 213 0
-211 212 213 0
26 -214 0
58 -214 0
-26 -58 214 0
26 -215 0
211 -215 0
-26 -211 215 0
58 -216 0
211 -216 0
-58 -211 216 0
-214 217 0
-215 217 0
-216 217 0
214 215 216 -217 0
-27 -59 -218 0
27 59 -218 0
-27 59 218 0
27 -59 218 0
-217 -218 -219 0
217 218 -219 0
217 -218 219 0
-217 218 219 0
27 -220 0
59 -220 0
-27 -59 220 0
27 -221 0
217 -221 0
-27 -217 221 0
59 -222 0
217 -222 0
-59 -217 222 0
-220 223 0
-221 223 0
-222 223 0
220 221 222 -223 0
-28 -60 -224 0
28 60 -224 0
-28 60 224 0
28 -60 224 0
-223 -224 -225 0
223 224 -225 0
223 -224 225 0
-223 224 225 0
28 -226 0
60 -226 0
-28 -60 226 0
28 -227 0
223 -227 0
-28 -223 227 0
60 -228 0
223 -228 0
-60 -223 228 0
-226 229 0
-227 229 0
-228 229 0
226 227 228 -229 0
-29 -61 -230 0
29 61 -230 0
-29 61 230 0
29 -61 230 0
-229 -230 -231 0
229 230 -231 0
229 -230 231 0
-229 230 231 0
29 -232 0
61 -232 0
-29 -61 232 0
29 -233 0
229 -233 0
-29 -229 233 0
61 -234 0
229 -234 0
-61 -229 234 0
-232 235 0
-233 235 0
-234 235 0
232 233 234 -235 0
-30 -62 -236 0
30 62 -236 0
-30 62 236 0
30 -62 236 0
-235 -236 -237 0
235 236 -237 0
235 -236 237 0
-235 236 237 0
30 -238 0
62 -238 0
-30 -62 238 0
30 -239 0
235 -239 0
-30 -235 239 0
62 -240 0
235 -240 0
-62 -235 240 0
-238 241 0
-239 241 0
-240 241 0
238 239 240 -241 0
-31 -63 -242 0
31 63 -242 0
-31 63 242 0
31 -63 242 0
-241 -242 -243 0
241 242 -243 0
241 -242 243 0
-241 242 243 0
31 -244 0
63 -244 0
-31 -63 244 0
31 -245 0
241 -245 0
-31 -241 245 0
63 -246 0
241 -246 0
-63 -241 246 0
-244 247 0
-245 247 0
-246 247 0
244 245 246 -247 0
-32 -64 -248 0
32 64 -248 0
-32 64 248 0
32 -64 248 0
-247 -248 -249 0
247 248 -249 0
247 -248 249 0
-247 248 249 0
32 -250 0
64 -250 0
-32 -64 250 0
32 -251 0
247 -251 0
-32 -247 251 0
64 -252 0
247 -252 0
-64 -247 252 0
-250 253 0
-251 253 0
-252 253 0
250 251 252 -253 0
-65 -254 -286 0
65 254 -286 0
-65 254 286 0
65 -254 286 0
65 -287 0
254 -287 0
-65 -254 287 0
-287 288 0
287 -288 0
-69 -255 -289 0
69 255 -289 0
-69 255 289 0
69 -255 289 0
-288 -289 -290 0
288 289 -290 0
288 -289 290 0
-288 289 290 0
69 -291 0
255 -291 0
-69 -255 291 0
69 -292 0
288 -292 0
-69 -288 292 0
255 -293 0
288 -293 0
-255 -288 293 0
-291 294 0
-292 294 0
-293 294 0
291 292 293 -294 0
-75 -256 -295 0
75 256 -295 0
-75 256 295 0
75 -256 295 0
-294 -295 -296 0
294 295 -296 0
294 -295 296 0
-294 295 296 0
75 -297 0
256 -297 0
-75 -256 297 0
75 -298 0
294 -298 0
-75 -294 298 0
256 -299 0
294 -299 0
-256 -294 299 0
-297 300 0
-298 300 0
-299 300 0
297 298 299 -300 0
-81 -257 -301 0
81 257 -301 0
-81 257 301 0
81 -257 301 0
-300 -301 -302 0
300 301 -302 0
300 -301 302 0
-300 301 302 0
81 -303 0
257 -303 0
-81 -257 303 0
81 -304 0
300 -304 0
-81 -300 304 0
257 -305 0
300 -305 0
-257 -300 305 0
-303 306 0
-304 306 0
-305 306 0
303 304 305 -306 0
-87 -258 -307 0
87 258 -307 0
-87 258 307 0
87 -258 307 0
-306 -307 -308 0
306 307 -308 0
306 -307 308 0
-306 307 308 0
87 -309 0
258 -309 0
-87 -258 309 0
87 -310 0
306 -310 0
-87 -306 310 0
258 -311 0
306 -311 0
-258 -306 311 0
-309 312 0
-310 312 0
-311 312 0
309 310 311 -312 0
-93 -259 -313 0
93 259 -313 0
-93 259 313 0
93 -259 313 0
-312 -313 -314 0
312 313 -314 0
312 -313 314 0
-312 313 314 0
93 -315 0
259 -315 0
-93 -259 315 0
93 -316 0
312 -316 0
-93 -312 316 0
259 -317 0
312 -317 0
-259 -312 317 0
-315 318 0
-316 318 0
-317 318 0
315 316 317 -318 0
-99 -260 -319 0
99 260 -319 0
-99 260 319 0
99 -260 319 0
-318 -319 -320 0
318 319 -320 0
318 -319 320 0
-318 319 320 0
99 -321 0
260 -321 0
-99 -260 321 0
99 -322 0
318 -322 0
-99 -318 322 0
260 -323 0
318 -323 0
-260 -318 323 0
-321 324 0
-322 324 0
-323 324 0
321 322 323 -324 0
-105 -261 -325 0
105 261 -325 0
-105 261 325 0
105 -261 325 0
-324 -325 -326 0
324 325 -326 0
324 -325 326 0
-324 325 326 0
105 -327 0
261 -327 0
-105 -261 327 0
105 -328 0
324 -328 0
-105 -324 328 0
261 -329 0
324 -329 0
-261 -324 329 0
-327 330 0
-328 330 0
-329 330 0
327 328 329 -330 0
-111 -262 -331 0
111 262 -331 0
-111 262 331 0
111 -262 331 0
-330 -331 -332 0
330 331 -332 0
330 -331 332 0
-330 331 332 0
111 -333 0
262 -333 0
-111 -262 333 0
111 -334 0
330 -334 0
-111 -330 334 0
262 -335 0
330 -335 0
-262 -330 335 0
-333 336 0
-334 336 0
-335 336 0
333 334 335 -336 0
-117 -263 -337 0
117 263 -337 0
-117 263 337 0
117 -263 337 0
-336 -337 -338 0
336 337 -338 0
336 -337 338 0
-336 337 338 0
117 -339 0
263 -339 0
-117 -263 339 0
117 -340 0
336 -340 0
-117 -336 340 0
263 -341 0
336 -341 0
-263 -336 341 0
-339 342 0
-340 342 0
-341 342 0
339 340 341 -342 0
-123 -264 -343 0
123 264 -343 0
-123 264 343 0
123 -264 343 0
-342 -343 -344 0
342 343 -344 0
342 -343 344 0
-342 343 344 0
123 -345 0
264 -345 0
-123 -264 345 0
123 -346 0
342 -346 0
-123 -342 346 0
264 -347 0
342 -347 0
-264 -342 347 0
-345 348 0
-346 348 0
-347 348 0
345 346 347 -348 0
-129 -265 -349 0
129 265 -349 0
-129 265 349 0
129 -265 349 0
-348 -349 -350 0
348 349 -350 0
348 -349 350 0
-348 349 350 0
129 -351 0
265 -351 0
-129 -265 351 0
129 -352 0
348 -352 0
-129 -348 352 0
265 -353 0
348 -353 0
-265 -348 353 0
-351 354 0
-352 354 0
-353 354 0
351 352 353 -354 0
-135 -266 -355 0
135 266 -355 0
-135 266 355 0
135 -266 355 0
-354 -355 -356 0
354 355 -356 0
354 -355 356 0
-354 355 356 0
135 -357 0
266 -357 0
-135 -266 357 0
135 -358 0
354 -358 0
-135 -354 358 0
266 -359 0
354 -359 0
-266 -354 359 0
-357 360 0
-358 360 0
-359 360 0
357 358 359 -360 0
-141 -267 -361 0
141 267 -361 0
-141 267 361 0
141 -267 361 0
-360 -361 -362 0
360 361 -362 0
360 -361 362 0
-360 361 362 0
141 -363 0
267 -363 0
-141 -267 363 0
141 -364 0
360 -364 0
-141 -360 364 0
267 -365 0
360 -365 0
-267 -360 365 0
-363 366 0
-364 366 0
-365 366 0
363 364 365 -366 0
-147 -268 -367 0
147 268 -367 0
-147 268 367 0
147 -268 367 0
-366 -367 -368 0
366 367 -368 0
366 -367 368 0
-366 367 368 0
147 -369 0
268 -369 0
-147 -268 369 0
147 -370 0
366 -370 0
-147 -366 370 0
268 -371 0
366 -371 0
-268 -366 371 0
-369 372 0
-370 372 0
-371 372 0
369 370 371 -372 0
-153 -269 -373 0
153 269 -373 0
-153 269 373 0
153 -269 373 0
-372 -373 -374 0
372 373 -374 0
372 -373 374 0
-372 373 374 0
153 -375 0
269 -375 0
-153 -269 375 0
153 -376 0
372 -376 0
-153 -372 376 0
269 -377 0
372 -377 0
-269 -372 377 0
-375 378 0
-376 378 0
-377 378 0
375 376 377 -378 0
-159 -270 -379 0
159 270 -379 0
-159 270 379 0
159 -270 379 0
-378 -379 -380 0
378 379 -380 0
378 -379 380 0
-378 379 380 0
159 -381 0
270 -381 0
-159 -270 381 0
159 -382 0
378 -382 0
-159 -378 382 0
270 -383 0
378 -383 0
-270 -378 383 0
-381 384 0
-382 384 0
-383 384 0
381 382 383 -384 0
-165 -271 -385 0
165 271 -385 0
-165 271 385 0
165 -271 385 0
-384 -385 -386 0
384 385 -386 0
384 -385 386 0
-384 385 386 0
165 -387 0
271 -387 0
-165 -271 387 0
165 -388 0
384 -388 0
-165 -384 388 0
271 -389 0
384 -389 0
-271 -384 389 0
-387 390 0
-388 390 0
-389 390 0
387 388 389 -390 0
-171 -272 -391 0
171 272 -391 0
-171 272 391 0
171 -272 391 0
-390 -391 -392 0
390 391 -392 0
390 -391 392 0
-390 391 392 0
171 -393 0
272 -393 0
-171 -272 393 0
171 -394 0
390 -394 0
-171 -390 394 0
272 -395 0
390 -395 0
-272 -390 395 0
-393 396 0
-394 396 0
-395 396 0
393 394 395 -396 0
-177 -273 -397 0
177 273 -397 0
-177 273 397 0
177 -273 397 0
-396 -397 -398 0
396 397 -398 0
396 -397 398 0
-396 397 398 0
177 -399 0
273 -399 0
-177 -273 399 0
177 -400 0
396 -400 0
-177 -396 400 0
273 -401 0
396 -401 0
-273 -396 401 0
-399 402 0
-400 402 0
-401 402 0
399 400 401 -402 0
-183 -274 -403 0
183 274 -403 0
-183 274 403 0
183 -274 403 0
-402 -403 -404 0
402 403 -404 0
402 -403 404 0
-402 403 404 0
183 -405 0
274 -405 0
-183 -274 405 0
183 -406 0
402 -406 0
-183 -402 406 0
274 -407 0
402 -407 0
-274 -402 407 0
-405 408 0
-406 408 0
-407 408 0
405 406 407 -408 0
-189 -275 -409 0
189 275 -409 0
-189 275 409 0
189 -275 409 0
-408 -409 -410 0
408 409 -410 0
408 -409 410 0
-408 409 410 0
189 -411 0
275 -411 0
-189 -275 411 0
189 -412 0
408 -412 0
-189 -408 412 0
275 -413 0
408 -413 0
-275 -408 413 0
-411 414 0
-412 414 0
-413 414 0
411 412 413 -414 0
-195 -276 -415 0
195 276 -415 0
-195 276 415 0
195 -276 415 0
-414 -415 -416 0
414 415 -416 0
414 -415 416 0
-414 415 416 0
195 -417 0
276 -417 0
-195 -276 417 0
195 -418 0
414 -418 0
-195 -414 418 0
276 -419 0
414 -419 0
-276 -414 419 0
-417 420 0
-418 420 0
-419 420 0
417 418 419 -420 0
-201 -277 -421 0
201 277 -421 0
-201 277 421 0
201 -277 421 0
-420 -421 -422 0
420 421 -422 0
420 -421 422 0
-420 421 422 0
201 -423 0
277 -423 0
-201 -277 423 0
201 -424 0
420 -424 0
-201 -420 424 0
277 -425 0
420 -425 0
-277 -420 425 0
-423 426 0
-424 426 0
-425 426 0
423 424 425 -426 0
-207 -278 -427 0
207 278 -427 0
-207 278 427 0
207 -278 427 0
-426 -427 -428 0
426 427 -428 0
426 -427 428 0
-426 427 428 0
207 -429 0
278 -429 0
-207 -278 429 0
207 -430 0
426 -430 0
-207 -426 430 0
278 -431 0
426 -431 0
-278 -426 431 0
-429 432 0
-430 432 0
-431 432 0
429 430 431 -432 0
-213 -279 -433 0
213 279 -433 0
-213 279 433 0
213 -279 433 0
-432 -433 -434 0
432 433 -434 0
432 -433 434 0
-432 433 434 0
213 -435 0
279 -435 0
-213 -279 435 0
213 -436 0
432 -436 0
-213 -432 436 0
279 -437 0
432 -437 0
-279 -432 437 0
-435 438 0
-436 438 0
-437 438 0
435 436 437 -438 0
-219 -280 -439 0
219 280 -439 0
-219 280 439 0
219 -280 439 0
-438 -439 -440 0
438 439 -440 0
438 -439 440 0
-438 439 440 0
219 -441 0
280 -441 0
-219 -280 441 0
219 -442 0
438 -442 0
-219 -438 442 0
280 -443 0
438 -443 0
-280 -438 443 0
-441 444 0
-442 444 0
-443 444 0
441 442 443 -444 0
-225 -281 -445 0
225 281 -445 0
-225 281 445 0
225 -281 445 0
-444 -445 -446 0
444 445 -446 0
444 -445 446 0
-444 445 446 0
225 -447 0
281 -447 0
-225 -281 447 0
225 -448 0
444 -448 0
-225 -444 448 0
281 -449 0
444 -449 0
-281 -444 449 0
-447 450 0
-448 450 0
-449 450 0
447 448 449 -450 0
-231 -282 -451 0
231 282 -451 0
-231 282 451 0
231 -282 451 0
-450 -451 -452 0
450 451 -452 0
450 -451 452 0
-450 451 452 0
231 -453 0
282 -453 0
-231 -282 453 0
231 -454 0
450 -454 0
-231 -450 454 0
282 -455 0
450 -455 0
-282 -450 455 0
-453 456 0
-454 456 0
-455 456 0
453 454 455 -456 0
-237 -283 -457 0
237 283 -457 0
-237 283 457 0
237 -283 457 0
-456 -457 -458 0
456 457 -458 0
456 -457 458 0
-456 457 458 0
237 -459 0
283 -459 0
-237 -283 459 0
237 -460 0
456 -460 0
-237 -456 460 0
283 -461 0
456 -461 0
-283 -456 461 0
-459 462 0
-460 462 0
-461 462 0
459 460 461 -462 0
-243 -284 -463 0
243 284 -463 0
-243 284 463 0
243 -284 463 0
-462 -463 -464 0
462 463 -464 0
462 -463 464 0
-462 463 464 0
243 -465 0
284 -465 0
-243 -284 465 0
243 -466 0
462 -466 0
-243 -462 466 0
284 -467 0
462 -467 0
-284 -462 467 0
-465 468 0
-466 468 0
-467 468 0
465 466 467 -468 0
-249 -285 -469 0
249 285 -469 0
-249 285 469 0
249 -285 469 0
-468 -469 -470 0
468 469 -470 0
468 -469 470 0
-468 469 470 0
249 -471 0
285 -471 0
-249 -285 471 0
249 -472 0
468 -472 0
-249 -468 472 0
285 -473 0
468 -473 0
-285 -468 473 0
-471 474 0
-472 474 0
-473 474 0
471 472 473 -474 0
-1 -475 0
1 -475 0
-2 -476 0
2 -476 0
-3 -477 0
3 -477 0
-4 -478 0
4 -478 0
-5 -479 0
5 -479 0
-6 -480 0
6 -480 0
-7 -481 0
7 -481 0
-8 -482 0
8 -482 0
-9 -483 0
9 -483 0
-10 -484 0
10 -484 0
-11 -485 0
11 -485 0
-12 -486 0
12 -486 0
-13 -487 0
13 -487 0
-14 -488 0
14 -488 0
-15 -489 0
15 -489 0
-16 -490 0
16 -490 0
-17 -491 0
17 -491 0
-18 -492 0
18 -492 0
-19 -493 0
19 -493 0
-20 -494 0
20 -494 0
-21 -495 0
21 -495 0
-22 -496 0
22 -496 0
-23 -497 0
23 -497 0
-24 -498 0
24 -498 0
-25 -499 0
25 -499 0
-26 -500 0
26 -500 0
-27 -501 0
27 -501 0
-28 -502 0
28 -502 0
-29 -503 0
29 -503 0
-30 -504 0
30 -504 0
-31 -505 0
31 -505 0
-32 -506 0
32 -506 0
-475 -507 0
-476 -507 0
-477 -507 0
-478 -507 0
-479 -507 0
-480 -507 0
-481 -507 0
-482 -507 0
-483 -507 0
-484 -507 0
-485 -507 0
-486 -507 0
-487 -507 0
-488 -507 0
-489 -507 0
-490 -507 0
-491 -507 0
-492 -507 0
-493 -507 0
-494 -507 0
-495 -507 0
-496 -507 0
-497 -507 0
-498 -507 0
-499 -507 0
-500 -507 0
-501 -507 0
-502 -507 0
-503 -507 0
-504 -507 0
-505 -507 0
-506 -507 0
475 476 477 478 479 480 481 482 483 484 485 486 487 488 489 490 491 492 493 494 495 496 497 498 499 500 501 502 503 504 505 506 507 0
-33 -508 0
33 -508 0
-34 -509 0
34 -509 0
-35 -510 0
35 -510 0
-36 -511 0
36 -511 0
-37 -512 0
37 -512 0
-38 -513 0
38 -513 0
-39 -514 0
39 -514 0
-40 -515 0
40 -515 0
-41 -516 0
41 -516 0
-42 -517 0
42 -517 0
-43 -518 0
43 -518 0
-44 -519 0
44 -519 0
-45 -520 0
45 -520 0
-46 -521 0
46 -521 0
-47 -522 0
47 -522 0
-48 -523 0
48 -523 0
-49 -524 0
49 -524 0
-50 -525 0
50 -525 0
-51 -526 0
51 -526 0
-52 -527 0
52 -527 0
-53 -528 0
53 -528 0
-54 -529 0
54 -529 0
-55 -530 0
55 -530 0
-56 -531 0
56 -531 0
-57 -532 0
57 -532 0
-58 -533 0
58 -533 0
-59 -534 0
59 -534 0
-60 -535 0
60 -535 0
-61 -536 0
61 -536 0
-62 -537 0
62 -537 0
-63 -538 0
63 -538 0
-64 -539 0
64 -539 0
-508 -540 0
-509 -540 0
-510 -540 0
-511 -540 0
-512 -540 0
-513 -540 0
-514 -540 0
-515 -540 0
-516 -540 0
-517 -540 0
-518 -540 0
-519 -540 0
-520 -540 0
-521 -540 0
-522 -540 0
-523 -540 0
-524 -540 0
-525 -540 0
-526 -540 0
-527 -540 0
-528 -540 0
-529 -540 0
-530 -540 0
-531 -540 0
-532 -540 0
-533 -540 0
-534 -540 0
-535 -540 0
-536 -540 0
-537 -540 0
-538 -540 0
-539 -540 0
508 509 510 511 512 513 514 515 516 517 518 519 520 521 522 523 524 525 526 527 528 529 530 531 532 533 534 535 536 537 538 539 540 0
-254 -541 0
254 -541 0
-255 -542 0
255 -542 0
-256 -543 0
256 -543 0
-257 -544 0
257 -544 0
-258 -545 0
258 -545 0
-259 -546 0
259 -546 0
-260 -547 0
260 -547 0
-261 -548 0
261 -548 0
-262 -549 0
262 -549 0
-263 -550 0
263 -550 0
-264 -551 0
264 -551 0
-265 -552 0
265 -552 0
-266 -553 0
266 -553 0
-267 -554 0
267 -554 0
-268 -555 0
268 -555 0
-269 -556 0
269 -556 0
-270 -557 0
270 -557 0
-271 -558 0
271 -558 0
-272 -559 0
272 -559 0
-273 -560 0
273 -560 0
-274 -561 0
274 -561 0
-275 -562 0
275 -562 0
-276 -563 0
276 -563 0
-277 -564 0
277 -564 0
-278 -565 0
278 -565 0
-279 -566 0
279 -566 0
-280 -567 0
280 -567 0
-281 -568 0
281 -568 0
-282 -569 0
282 -569 0
-283 -570 0
283 -570 0
-284 -571 0
284 -571 0
-285 -572 0
285 -572 0
-541 -573 0
-542 -573 0
-543 -573 0
-544 -573 0
-545 -573 0
-546 -573 0
-547 -573 0
-548 -573 0
-549 -573 0
-550 -573 0
-551 -573 0
-552 -573 0
-553 -573 0
-554 -573 0
-555 -573 0
-556 -573 0
-557 -573 0
-558 -573 0
-559 -573 0
-560 -573 0
-561 -573 0
-562 -573 0
-563 -573 0
-564 -573 0
-565 -573 0
-566 -573 0
-567 -573 0
-568 -573 0
-569 -573 0
-570 -573 0
-571 -573 0
-572 -573 0
541 542 543 544 545 546 547 548 549 550 551 552 553 554 555 556 557 558 559 560 561 562 563 564 565 566 567 568 569 570 571 572 573 0
-574 -606 0
574 -606 0
-575 -607 0
575 -607 0
-576 -608 0
576 -608 0
-577 -609 0
577 -609 0
-578 -610 0
578 -610 0
-579 -611 0
579 -611 0
-580 -612 0
580 -612 0
-581 -613 0
581 -613 0
-582 -614 0
582 -614 0
-583 -615 0
583 -615 0
-584 -616 0
584 -616 0
-585 -617 0
585 -617 0
-586 -618 0
586 -618 0
-587 -619 0
587 -619 0
-588 -620 0
588 -620 0
-589 -621 0
589 -621 0
-590 -622 0
590 -622 0
-591 -623 0
591 -623 0
-592 -624 0
592 -624 0
-593 -625 0
593 -625 0
-594 -626 0
594 -626 0
-595 -627 0
595 -627 0
-596 -628 0
596 -628 0
-597 -629 0
597 -629 0
-598 -630 0
598 -630 0
-599 -631 0
599 -631 0
-600 -632 0
600 -632 0
-601 -633 0
601 -633 0
-602 -634 0
602 -634 0
-603 -635 0
603 -635 0
-604 -636 0
604 -636 0
-605 -637 0
605 -637 0
-606 -638 0
-607 -638 0
-608 -638 0
-609 -638 0
-610 -638 0
-611 -638 0
-612 -638 0
-613 -638 0
-614 -638 0
-615 -638 0
-616 -638 0
-617 -638 0
-618 -638 0
-619 -638 0
-620 -638 0
-621 -638 0
-622 -638 0
-623 -638 0
-624 -638 0
-625 -638 0
-626 -638 0
-627 -638 0
-628 -638 0
-629 -638 0
-630 -638 0
-631 -638 0
-632 -638 0
-633 -638 0
-634 -638 0
-635 -638 0
-636 -638 0
-637 -638 0
606 607 608 609 610 611 612 613 614 615 616 617 618 619 620 621 622 623 624 625 626 627 628 629 630 631 632 633 634 635 636 637 638 0
c FALSE c::__CPROVER_malloc_is_new_array#1
c c::main::1::x!0@1#1 1 2 3 4 5 6 7 8 9 10 11 12 13 14 15 16 17 18 19 20 21 22 23 24 25 26 27 28 29 30 31 32
c c::main::1::y!0@1#1 33 34 35 36 37 38 39 40 41 42 43 44 45 46 47 48 49 50 51 52 53 54 55 56 57 58 59 60 61 62 63 64
c c::main::1::z!0@1#1 254 255 256 257 258 259 260 261 262 263 264 265 266 267 268 269 270 271 272 273 274 275 276 277 278 279 280 281 282 283 284 285
c c::main::1::o!0@1#1 574 575 576 577 578 579 580 581 582 583 584 585 586 587 588 589 590 591 592 593 594 595 596 597 598 599 600 601 602 603 604 605
c c::main::1::o!0@1#2 286 290 296 302 308 314 320 326 332 338 344 350 356 362 368 374 380 386 392 398 404 410 416 422 428 434 440 446 452 458 464 470
